(set-info :smt-lib-version 2.6)
(set-logic UF)
(set-info :source |Benchmarks from the paper: "Extending Sledgehammer with SMT Solvers" by Jasmin Blanchette, Sascha Bohme, and Lawrence C. Paulson, CADE 2011.  Translated to SMT2 by Andrew Reynolds and Morgan Deters.|)
(set-info :category "industrial")
(set-info :status unknown)
(declare-sort S1 0)
(declare-sort S2 0)
(declare-sort S3 0)
(declare-sort S4 0)
(declare-sort S5 0)
(declare-sort S6 0)
(declare-sort S7 0)
(declare-sort S8 0)
(declare-sort S9 0)
(declare-sort S10 0)
(declare-sort S11 0)
(declare-sort S12 0)
(declare-sort S13 0)
(declare-sort S14 0)
(declare-sort S15 0)
(declare-sort S16 0)
(declare-sort S17 0)
(declare-sort S18 0)
(declare-sort S19 0)
(declare-sort S20 0)
(declare-sort S21 0)
(declare-sort S22 0)
(declare-sort S23 0)
(declare-sort S24 0)
(declare-sort S25 0)
(declare-sort S26 0)
(declare-sort S27 0)
(declare-sort S28 0)
(declare-sort S29 0)
(declare-sort S30 0)
(declare-sort S31 0)
(declare-sort S32 0)
(declare-sort S33 0)
(declare-sort S34 0)
(declare-sort S35 0)
(declare-sort S36 0)
(declare-sort S37 0)
(declare-sort S38 0)
(declare-sort S39 0)
(declare-sort S40 0)
(declare-sort S41 0)
(declare-sort S42 0)
(declare-sort S43 0)
(declare-sort S44 0)
(declare-sort S45 0)
(declare-sort S46 0)
(declare-sort S47 0)
(declare-sort S48 0)
(declare-sort S49 0)
(declare-sort S50 0)
(declare-sort S51 0)
(declare-sort S52 0)
(declare-sort S53 0)
(declare-sort S54 0)
(declare-sort S55 0)
(declare-sort S56 0)
(declare-sort S57 0)
(declare-sort S58 0)
(declare-sort S59 0)
(declare-sort S60 0)
(declare-sort S61 0)
(declare-sort S62 0)
(declare-sort S63 0)
(declare-sort S64 0)
(declare-sort S65 0)
(declare-sort S66 0)
(declare-sort S67 0)
(declare-sort S68 0)
(declare-sort S69 0)
(declare-sort S70 0)
(declare-sort S71 0)
(declare-sort S72 0)
(declare-fun f1 () S1)
(declare-fun f2 () S1)
(declare-fun f3 (S2 S3) S1)
(declare-fun f4 (S4 S5) S2)
(declare-fun f5 (S6 S7) S4)
(declare-fun f6 (S8 S7) S6)
(declare-fun f7 () S8)
(declare-fun f8 () S7)
(declare-fun f9 () S7)
(declare-fun f10 (S9 S5) S5)
(declare-fun f11 (S10 S11) S9)
(declare-fun f12 () S10)
(declare-fun f13 () S11)
(declare-fun f14 (S12 S11) S5)
(declare-fun f15 () S12)
(declare-fun f16 () S11)
(declare-fun f17 () S3)
(declare-fun f18 (S13 S14) S1)
(declare-fun f19 (S15 S16) S13)
(declare-fun f20 () S15)
(declare-fun f21 (S17 S5) S16)
(declare-fun f22 (S18 S7) S17)
(declare-fun f23 (S19 S7) S18)
(declare-fun f24 () S19)
(declare-fun f25 (S20 S3) S14)
(declare-fun f26 () S20)
(declare-fun f27 (S21 S22) S1)
(declare-fun f28 (S23 S5) S21)
(declare-fun f29 () S23)
(declare-fun f30 () S12)
(declare-fun f31 (S24 S22) S22)
(declare-fun f32 () S24)
(declare-fun f33 (S25 S3) S22)
(declare-fun f34 (S26 S7) S25)
(declare-fun f35 () S26)
(declare-fun f36 () S7)
(declare-fun f37 (S27 S28) S1)
(declare-fun f38 (S29 S7) S27)
(declare-fun f39 () S29)
(declare-fun f40 () S28)
(declare-fun f41 (S30 S2) S1)
(declare-fun f42 (S31 S3) S30)
(declare-fun f43 () S31)
(declare-fun f44 () S2)
(declare-fun f45 (S32 S7) S11)
(declare-fun f46 () S32)
(declare-fun f47 () S18)
(declare-fun f48 () S18)
(declare-fun f49 (S22 S5) S1)
(declare-fun f50 () S24)
(declare-fun f51 (S33 S3) S3)
(declare-fun f52 (S34 S16) S33)
(declare-fun f53 () S34)
(declare-fun f54 () S24)
(declare-fun f55 (S35 S7) S22)
(declare-fun f56 () S35)
(declare-fun f57 (S38 S39) S1)
(declare-fun f58 (S40 S36) S38)
(declare-fun f59 () S40)
(declare-fun f60 (S41 S37) S39)
(declare-fun f61 () S41)
(declare-fun f62 (S42 S37) S37)
(declare-fun f63 (S43 S36) S42)
(declare-fun f64 () S43)
(declare-fun f65 (S45 S46) S1)
(declare-fun f66 (S47 S44) S45)
(declare-fun f67 () S47)
(declare-fun f68 (S48 S36) S46)
(declare-fun f69 () S48)
(declare-fun f70 (S49 S36) S36)
(declare-fun f71 (S50 S44) S49)
(declare-fun f72 () S50)
(declare-fun f73 (S52 S51) S22)
(declare-fun f74 () S52)
(declare-fun f75 (S53 S51) S51)
(declare-fun f76 (S54 S5) S53)
(declare-fun f77 () S54)
(declare-fun f78 (S56 S55) S28)
(declare-fun f79 () S56)
(declare-fun f80 (S57 S55) S55)
(declare-fun f81 (S58 S7) S57)
(declare-fun f82 () S58)
(declare-fun f83 (S60 S59) S2)
(declare-fun f84 () S60)
(declare-fun f85 (S61 S59) S59)
(declare-fun f86 (S62 S3) S61)
(declare-fun f87 () S62)
(declare-fun f88 (S64 S65) S1)
(declare-fun f89 (S66 S11) S64)
(declare-fun f90 () S66)
(declare-fun f91 (S67 S63) S65)
(declare-fun f92 () S67)
(declare-fun f93 (S68 S63) S63)
(declare-fun f94 (S69 S11) S68)
(declare-fun f95 () S69)
(declare-fun f96 () S24)
(declare-fun f97 (S70 S5) S9)
(declare-fun f98 () S70)
(declare-fun f99 (S71 S5) S24)
(declare-fun f100 () S71)
(declare-fun f101 (S72 S7) S5)
(declare-fun f102 () S72)
(declare-fun f103 () S65)
(declare-fun f104 (S46 S44) S1)
(declare-fun f105 (S39 S36) S1)
(declare-fun f106 (S14 S16) S1)
(declare-fun f107 (S28 S7) S1)
(declare-fun f108 (S65 S11) S1)
(assert (not (= f1 f2)))
(assert (not (= (f3 (f4 (f5 (f6 f7 f8) f9) (f10 (f11 f12 f13) (f14 f15 f16))) f17) f1)))
(assert (= (f18 (f19 f20 (f21 (f22 (f23 f24 f8) f9) (f10 (f11 f12 f13) (f14 f15 f16)))) (f25 f26 f17)) f1))
(assert (not (= (f27 (f28 f29 (f14 f30 f13)) (f31 f32 (f33 (f34 f35 f36) f17))) f1)))
(assert (not (= (f37 (f38 f39 f9) f40) f1)))
(assert (not (= (f37 (f38 f39 f8) f40) f1)))
(assert (= (f41 (f42 f43 f17) f44) f1))
(assert (= (f37 (f38 f39 f36) f40) f1))
(assert (forall ((?v0 S7) (?v1 S7) (?v2 S5) (?v3 S3)) (=> (= (f18 (f19 f20 (f21 (f22 (f23 f24 ?v0) ?v1) ?v2)) (f25 f26 ?v3)) f1) (= (f27 (f28 f29 ?v2) (f31 f32 (f33 (f34 f35 f36) ?v3))) f1))))
(assert (forall ((?v0 S7) (?v1 S7) (?v2 S5) (?v3 S3)) (=> (= (f18 (f19 f20 (f21 (f22 (f23 f24 ?v0) ?v1) ?v2)) (f25 f26 ?v3)) f1) (= (f27 (f28 f29 ?v2) (f33 (f34 f35 f36) ?v3)) f1))))
(assert (forall ((?v0 S7) (?v1 S7) (?v2 S5) (?v3 S3)) (=> (= (f18 (f19 f20 (f21 (f22 (f23 f24 ?v0) ?v1) ?v2)) (f25 f26 ?v3)) f1) (= (f27 (f28 f29 ?v2) (f33 (f34 f35 ?v0) ?v3)) f1))))
(assert (forall ((?v0 S5) (?v1 S3) (?v2 S1)) (let ((?v_0 (=> (not (= (f27 (f28 f29 ?v0) (f31 f32 (f33 (f34 f35 f36) ?v1))) f1)) (= ?v2 f1)))) (=> ?v_0 ?v_0))))
(assert (forall ((?v0 S5) (?v1 S22)) (let ((?v_0 (f28 f29 ?v0))) (=> (= (f27 ?v_0 ?v1) f1) (= (f27 ?v_0 (f31 f32 ?v1)) f1)))))
(assert (forall ((?v0 S11) (?v1 S11) (?v2 S5)) (not (= (f14 f15 ?v0) (f10 (f11 f12 ?v1) ?v2)))))
(assert (forall ((?v0 S11) (?v1 S5) (?v2 S11)) (not (= (f10 (f11 f12 ?v0) ?v1) (f14 f15 ?v2)))))
(assert (forall ((?v0 S11) (?v1 S11)) (not (= (f14 f30 ?v0) (f14 f15 ?v1)))))
(assert (forall ((?v0 S11) (?v1 S11)) (not (= (f14 f15 ?v0) (f14 f30 ?v1)))))
(assert (forall ((?v0 S11) (?v1 S11) (?v2 S5)) (not (= (f14 f30 ?v0) (f10 (f11 f12 ?v1) ?v2)))))
(assert (forall ((?v0 S11) (?v1 S5) (?v2 S11)) (not (= (f10 (f11 f12 ?v0) ?v1) (f14 f30 ?v2)))))
(assert (forall ((?v0 S5) (?v1 S22)) (let ((?v_0 (f28 f29 ?v0)) (?v_1 (f31 f32 ?v1))) (=> (= (f27 ?v_0 (f31 f32 ?v_1)) f1) (= (f27 ?v_0 ?v_1) f1)))))
(assert (forall ((?v0 S22)) (let ((?v_0 (f31 f32 ?v0))) (= (f31 f32 ?v_0) ?v_0))))
(assert (forall ((?v0 S11) (?v1 S11)) (= (= (f14 f30 ?v0) (f14 f30 ?v1)) (= ?v0 ?v1))))
(assert (forall ((?v0 S11) (?v1 S5) (?v2 S11) (?v3 S5)) (= (= (f10 (f11 f12 ?v0) ?v1) (f10 (f11 f12 ?v2) ?v3)) (and (= ?v0 ?v2) (= ?v1 ?v3)))))
(assert (forall ((?v0 S11) (?v1 S11)) (= (= (f14 f15 ?v0) (f14 f15 ?v1)) (= ?v0 ?v1))))
(assert (forall ((?v0 S7) (?v1 S7) (?v2 S5) (?v3 S7) (?v4 S7) (?v5 S5)) (= (= (f21 (f22 (f23 f24 ?v0) ?v1) ?v2) (f21 (f22 (f23 f24 ?v3) ?v4) ?v5)) (and (= ?v0 ?v3) (and (= ?v1 ?v4) (= ?v2 ?v5))))))
(assert (forall ((?v0 S3) (?v1 S7)) (=> (= (f41 (f42 f43 ?v0) f44) f1) (= (= (f27 (f28 f29 (f14 f30 (f45 f46 ?v1))) (f31 f32 (f33 (f34 f35 f36) ?v0))) f1) (= (f37 (f38 f39 ?v1) f40) f1)))))
(assert (forall ((?v0 S7) (?v1 S5) (?v2 S3)) (=> (= (f18 (f19 f20 (f21 (f22 f47 ?v0) ?v1)) (f25 f26 ?v2)) f1) (=> (= (f37 (f38 f39 ?v0) f40) f1) (= (f27 (f28 f29 ?v1) (f33 (f34 f35 f36) ?v2)) f1)))))
(assert (forall ((?v0 S7) (?v1 S5) (?v2 S3)) (=> (not (= ?v0 f36)) (=> (= (f18 (f19 f20 (f21 (f22 f48 ?v0) ?v1)) (f25 f26 ?v2)) f1) (= (f27 (f28 f29 ?v1) (f33 (f34 f35 ?v0) ?v2)) f1)))))
(assert (forall ((?v0 S22) (?v1 S5) (?v2 S11)) (let ((?v_0 (f31 f50 ?v0))) (=> (= (f49 ?v_0 ?v1) f1) (=> (= (f49 ?v0 (f14 f30 ?v2)) f1) (= (f49 ?v_0 (f10 (f11 f12 ?v2) ?v1)) f1))))))
(assert (forall ((?v0 S5) (?v1 S7) (?v2 S7) (?v3 S5) (?v4 S3)) (let ((?v_1 (f34 f35 f36)) (?v_0 (f28 f29 ?v0))) (=> (not (= (f27 ?v_0 (f31 f32 (f33 ?v_1 (f51 (f52 f53 (f21 (f22 (f23 f24 ?v1) ?v2) ?v3)) ?v4)))) f1)) (not (= (f27 ?v_0 (f31 f32 (f33 ?v_1 ?v4))) f1))))))
(assert (forall ((?v0 S7) (?v1 S7) (?v2 S5) (?v3 S3)) (=> (= (f18 (f19 f20 (f21 (f22 (f23 f24 ?v0) ?v1) ?v2)) (f25 f26 ?v3)) f1) (=> (=> (= (f27 (f28 f29 ?v2) (f31 f54 (f33 (f34 f35 f36) ?v3))) f1) false) false))))
(assert (forall ((?v0 S7) (?v1 S5) (?v2 S3)) (let ((?v_0 (f31 f32 (f33 (f34 f35 f36) ?v2)))) (=> (= (f27 (f28 f29 (f10 (f11 f12 (f45 f46 ?v0)) ?v1)) ?v_0) f1) (=> (= (f37 (f38 f39 ?v0) f40) f1) (= (f27 (f28 f29 ?v1) ?v_0) f1))))))
(assert (forall ((?v0 S5) (?v1 S22)) (let ((?v_0 (f28 f29 ?v0))) (=> (= (f27 ?v_0 ?v1) f1) (= (f27 ?v_0 (f31 f54 ?v1)) f1)))))
(assert (forall ((?v0 S22) (?v1 S5)) (=> (= (f49 ?v0 ?v1) f1) (= (f49 (f31 f50 ?v0) ?v1) f1))))
(assert (forall ((?v0 S7) (?v1 S3)) (= (f27 (f28 f29 (f14 f30 (f45 f46 ?v0))) (f33 (f34 f35 ?v0) ?v1)) f1)))
(assert (forall ((?v0 S7) (?v1 S3)) (=> (= (f37 (f38 f39 ?v0) f40) f1) (= (f27 (f28 f29 (f14 f30 (f45 f46 ?v0))) (f33 (f34 f35 f36) ?v1)) f1))))
(assert (forall ((?v0 S7) (?v1 S5) (?v2 S7) (?v3 S5)) (not (= (f21 (f22 f48 ?v0) ?v1) (f21 (f22 f47 ?v2) ?v3)))))
(assert (forall ((?v0 S7) (?v1 S5) (?v2 S7) (?v3 S5)) (not (= (f21 (f22 f47 ?v0) ?v1) (f21 (f22 f48 ?v2) ?v3)))))
(assert (forall ((?v0 S22)) (let ((?v_0 (f31 f54 ?v0))) (= (f31 f54 ?v_0) ?v_0))))
(assert (forall ((?v0 S7) (?v1 S5) (?v2 S7) (?v3 S5)) (= (= (f21 (f22 f48 ?v0) ?v1) (f21 (f22 f48 ?v2) ?v3)) (and (= ?v0 ?v2) (= ?v1 ?v3)))))
(assert (forall ((?v0 S7) (?v1 S5) (?v2 S7) (?v3 S5)) (= (= (f21 (f22 f47 ?v0) ?v1) (f21 (f22 f47 ?v2) ?v3)) (and (= ?v0 ?v2) (= ?v1 ?v3)))))
(assert (forall ((?v0 S5) (?v1 S22)) (let ((?v_0 (f28 f29 ?v0)) (?v_1 (f31 f54 ?v1))) (=> (= (f27 ?v_0 (f31 f54 ?v_1)) f1) (= (f27 ?v_0 ?v_1) f1)))))
(assert (forall ((?v0 S7) (?v1 S7)) (= (= (f45 f46 ?v0) (f45 f46 ?v1)) (= ?v0 ?v1))))
(assert (forall ((?v0 S22)) (let ((?v_0 (f31 f54 ?v0))) (= (f31 f32 ?v_0) ?v_0))))
(assert (forall ((?v0 S22)) (= (f31 f54 (f31 f32 ?v0)) (f31 f54 ?v0))))
(assert (forall ((?v0 S5) (?v1 S22)) (let ((?v_0 (f28 f29 ?v0))) (let ((?v_1 (= (f27 ?v_0 (f31 f32 ?v1)) f1))) (= (and ?v_1 (= (f27 ?v_0 (f31 f54 ?v1)) f1)) ?v_1)))))
(assert (forall ((?v0 S5) (?v1 S22)) (let ((?v_0 (f28 f29 ?v0))) (let ((?v_1 (= (f27 ?v_0 (f31 f54 ?v1)) f1))) (= (or (= (f27 ?v_0 (f31 f32 ?v1)) f1) ?v_1) ?v_1)))))
(assert (forall ((?v0 S5) (?v1 S22)) (let ((?v_0 (f28 f29 ?v0))) (=> (not (= (f27 ?v_0 (f31 f54 ?v1)) f1)) (not (= (f27 ?v_0 (f31 f32 ?v1)) f1))))))
(assert (forall ((?v0 S5) (?v1 S22)) (let ((?v_0 (f28 f29 ?v0))) (=> (= (f27 ?v_0 (f31 f32 ?v1)) f1) (= (f27 ?v_0 (f31 f54 ?v1)) f1)))))
(assert (forall ((?v0 S11) (?v1 S5) (?v2 S22)) (let ((?v_0 (f31 f54 ?v2))) (=> (= (f27 (f28 f29 (f10 (f11 f12 ?v0) ?v1)) ?v_0) f1) (= (f27 (f28 f29 ?v1) ?v_0) f1)))))
(assert (forall ((?v0 S11) (?v1 S5) (?v2 S22)) (let ((?v_0 (f31 f54 ?v2))) (=> (= (f27 (f28 f29 (f10 (f11 f12 ?v0) ?v1)) ?v_0) f1) (=> (=> (= (f27 (f28 f29 ?v1) ?v_0) f1) false) false)))))
(assert (forall ((?v0 S7) (?v1 S5) (?v2 S3)) (let ((?v_0 (f34 f35 f36))) (= (f33 ?v_0 (f51 (f52 f53 (f21 (f22 f48 ?v0) ?v1)) ?v2)) (f33 ?v_0 ?v2)))))
(assert (forall ((?v0 S7) (?v1 S5) (?v2 S7) (?v3 S7) (?v4 S5)) (not (= (f21 (f22 f47 ?v0) ?v1) (f21 (f22 (f23 f24 ?v2) ?v3) ?v4)))))
(assert (forall ((?v0 S7) (?v1 S7) (?v2 S5) (?v3 S7) (?v4 S5)) (not (= (f21 (f22 (f23 f24 ?v0) ?v1) ?v2) (f21 (f22 f47 ?v3) ?v4)))))
(assert (forall ((?v0 S5) (?v1 S7) (?v2 S5) (?v3 S3)) (let ((?v_1 (f34 f35 f36)) (?v_0 (f28 f29 ?v0))) (=> (not (= (f27 ?v_0 (f31 f32 (f33 ?v_1 (f51 (f52 f53 (f21 (f22 f47 ?v1) ?v2)) ?v3)))) f1)) (not (= (f27 ?v_0 (f31 f32 (f33 ?v_1 ?v3))) f1))))))
(assert (forall ((?v0 S5) (?v1 S7) (?v2 S5) (?v3 S3)) (let ((?v_1 (f34 f35 f36)) (?v_0 (f28 f29 ?v0))) (=> (not (= (f27 ?v_0 (f31 f32 (f33 ?v_1 (f51 (f52 f53 (f21 (f22 f48 ?v1) ?v2)) ?v3)))) f1)) (not (= (f27 ?v_0 (f31 f32 (f33 ?v_1 ?v3))) f1))))))
(assert (forall ((?v0 S7) (?v1 S5) (?v2 S7) (?v3 S7) (?v4 S5)) (not (= (f21 (f22 f48 ?v0) ?v1) (f21 (f22 (f23 f24 ?v2) ?v3) ?v4)))))
(assert (forall ((?v0 S7) (?v1 S7) (?v2 S5) (?v3 S7) (?v4 S5)) (not (= (f21 (f22 (f23 f24 ?v0) ?v1) ?v2) (f21 (f22 f48 ?v3) ?v4)))))
(assert (forall ((?v0 S7) (?v1 S5) (?v2 S22)) (let ((?v_0 (f45 f46 ?v0)) (?v_1 (f31 f32 ?v2))) (=> (= (f27 (f28 f29 (f10 (f11 f12 ?v_0) ?v1)) ?v_1) f1) (=> (= (f27 (f28 f29 (f14 f30 ?v_0)) ?v_1) f1) (= (f27 (f28 f29 ?v1) ?v_1) f1))))))
(assert (forall ((?v0 S3) (?v1 S7)) (=> (= (f41 (f42 f43 ?v0) f44) f1) (= (= (f27 (f28 f29 (f14 f30 (f45 f46 ?v1))) (f31 f54 (f33 (f34 f35 f36) ?v0))) f1) (= (f37 (f38 f39 ?v1) f40) f1)))))
(assert (forall ((?v0 S7) (?v1 S5) (?v2 S3)) (=> (= (f18 (f19 f20 (f21 (f22 f47 ?v0) ?v1)) (f25 f26 ?v2)) f1) (= (f27 (f28 f29 ?v1) (f33 (f34 f35 ?v0) ?v2)) f1))))
(assert (forall ((?v0 S5) (?v1 S7) (?v2 S3)) (=> (= (f27 (f28 f29 ?v0) (f33 (f34 f35 ?v1) ?v2)) f1) (=> (not (= ?v1 f36)) (exists ((?v3 S7)) (let ((?v_0 (f25 f26 ?v2))) (or (= (f18 (f19 f20 (f21 (f22 (f23 f24 ?v1) ?v3) ?v0)) ?v_0) f1) (or (= (f18 (f19 f20 (f21 (f22 f48 ?v1) ?v0)) ?v_0) f1) (or (= (f18 (f19 f20 (f21 (f22 f47 ?v1) ?v0)) ?v_0) f1) (= (f27 (f28 f29 ?v0) (f55 f56 ?v1)) f1))))))))))
(assert (forall ((?v0 S36) (?v1 S36) (?v2 S37)) (let ((?v_0 (f58 f59 ?v0))) (=> (= (f57 ?v_0 (f60 f61 (f62 (f63 f64 ?v1) ?v2))) f1) (or (= ?v0 ?v1) (= (f57 ?v_0 (f60 f61 ?v2)) f1))))))
(assert (forall ((?v0 S44) (?v1 S44) (?v2 S36)) (let ((?v_0 (f66 f67 ?v0))) (=> (= (f65 ?v_0 (f68 f69 (f70 (f71 f72 ?v1) ?v2))) f1) (or (= ?v0 ?v1) (= (f65 ?v_0 (f68 f69 ?v2)) f1))))))
(assert (forall ((?v0 S5) (?v1 S5) (?v2 S51)) (let ((?v_0 (f28 f29 ?v0))) (=> (= (f27 ?v_0 (f73 f74 (f75 (f76 f77 ?v1) ?v2))) f1) (or (= ?v0 ?v1) (= (f27 ?v_0 (f73 f74 ?v2)) f1))))))
(assert (forall ((?v0 S7) (?v1 S7) (?v2 S55)) (let ((?v_0 (f38 f39 ?v0))) (=> (= (f37 ?v_0 (f78 f79 (f80 (f81 f82 ?v1) ?v2))) f1) (or (= ?v0 ?v1) (= (f37 ?v_0 (f78 f79 ?v2)) f1))))))
(assert (forall ((?v0 S3) (?v1 S3) (?v2 S59)) (let ((?v_0 (f42 f43 ?v0))) (=> (= (f41 ?v_0 (f83 f84 (f85 (f86 f87 ?v1) ?v2))) f1) (or (= ?v0 ?v1) (= (f41 ?v_0 (f83 f84 ?v2)) f1))))))
(assert (forall ((?v0 S11) (?v1 S11) (?v2 S63)) (let ((?v_0 (f89 f90 ?v0))) (=> (= (f88 ?v_0 (f91 f92 (f93 (f94 f95 ?v1) ?v2))) f1) (or (= ?v0 ?v1) (= (f88 ?v_0 (f91 f92 ?v2)) f1))))))
(assert (forall ((?v0 S16) (?v1 S16) (?v2 S3)) (let ((?v_0 (f19 f20 ?v0))) (=> (= (f18 ?v_0 (f25 f26 (f51 (f52 f53 ?v1) ?v2))) f1) (or (= ?v0 ?v1) (= (f18 ?v_0 (f25 f26 ?v2)) f1))))))
(assert (forall ((?v0 S3) (?v1 S5) (?v2 S7)) (=> (= (f41 (f42 f43 ?v0) f44) f1) (=> (= (f27 (f28 f29 ?v1) (f31 f96 (f31 f32 (f33 (f34 f35 f36) ?v0)))) f1) (= (f41 (f42 f43 (f51 (f52 f53 (f21 (f22 (f23 f24 f36) ?v2) ?v1)) ?v0)) f44) f1)))))
(assert (forall ((?v0 S7) (?v1 S7) (?v2 S11) (?v3 S5) (?v4 S5) (?v5 S5) (?v6 S5) (?v7 S3)) (=> (= (f18 (f19 f20 (f21 (f22 (f23 f24 ?v0) ?v1) (f10 (f11 f12 ?v2) (f10 (f97 f98 ?v3) (f10 (f97 f98 ?v4) (f10 (f97 f98 ?v5) ?v6)))))) (f25 f26 ?v7)) f1) (= (f27 (f28 f29 ?v6) (f31 f54 (f33 (f34 f35 f36) ?v7))) f1))))
(assert (forall ((?v0 S7) (?v1 S5) (?v2 S3)) (let ((?v_0 (f34 f35 f36))) (let ((?v_1 (f33 ?v_0 ?v2))) (= (f33 ?v_0 (f51 (f52 f53 (f21 (f22 f47 ?v0) ?v1)) ?v2)) (ite (= (f37 (f38 f39 ?v0) f40) f1) (f31 (f99 f100 ?v1) ?v_1) ?v_1))))))
(assert (forall ((?v0 S11) (?v1 S11) (?v2 S3) (?v3 S7) (?v4 S5) (?v5 S7) (?v6 S5)) (let ((?v_1 (f10 (f11 f12 ?v0) (f14 f15 ?v1))) (?v_0 (f31 f54 (f33 (f34 f35 f36) ?v2)))) (=> (= (f27 (f28 f29 ?v_1) ?v_0) f1) (=> (= (f27 (f28 f29 (f10 (f11 f12 (f45 f46 ?v3)) (f10 (f97 f98 ?v4) (f10 (f97 f98 (f101 f102 ?v5)) (f10 (f97 f98 (f14 f30 ?v0)) ?v6))))) ?v_0) f1) (=> (forall ((?v7 S5)) (not (= (f18 (f19 f20 (f21 (f22 f47 f36) (f10 (f97 f98 ?v4) (f10 (f97 f98 ?v7) (f14 f30 ?v0))))) (f25 f26 ?v2)) f1))) (=> (not (= (f37 (f38 f39 ?v3) f40) f1)) (=> (not (= (f37 (f38 f39 ?v5) f40) f1)) (=> (= (f41 (f42 f43 ?v2) f44) f1) (= (f18 (f19 f20 (f21 (f22 (f23 f24 ?v5) ?v3) ?v_1)) (f25 f26 ?v2)) f1))))))))))
(assert (forall ((?v0 S11) (?v1 S11) (?v2 S3) (?v3 S7) (?v4 S7)) (let ((?v_0 (f14 f15 ?v1))) (let ((?v_2 (f10 (f11 f12 ?v0) (f10 (f97 f98 ?v_0) ?v_0))) (?v_1 (f31 f54 (f33 (f34 f35 f36) ?v2)))) (=> (= (f27 (f28 f29 ?v_2) ?v_1) f1) (=> (= (f27 (f28 f29 (f10 (f11 f12 (f45 f46 ?v3)) (f10 (f97 f98 (f14 f30 ?v0)) (f101 f102 ?v4)))) ?v_1) f1) (=> (forall ((?v5 S5) (?v6 S5)) (not (= (f18 (f19 f20 (f21 (f22 f47 f36) (f10 (f97 f98 ?v5) (f10 (f97 f98 ?v6) (f14 f30 ?v0))))) (f25 f26 ?v2)) f1))) (=> (not (= (f37 (f38 f39 ?v4) f40) f1)) (=> (not (= (f37 (f38 f39 ?v3) f40) f1)) (=> (= (f41 (f42 f43 ?v2) f44) f1) (= (f18 (f19 f20 (f21 (f22 (f23 f24 ?v4) ?v3) ?v_2)) (f25 f26 ?v2)) f1)))))))))))
(assert (forall ((?v0 S11) (?v1 S5) (?v2 S22)) (let ((?v_0 (f31 f32 ?v2))) (=> (= (f27 (f28 f29 (f10 (f11 f12 ?v0) ?v1)) ?v_0) f1) (=> (= (f88 (f89 f90 ?v0) f103) f1) (=> (= (f27 (f28 f29 (f14 f30 ?v0)) ?v_0) f1) (= (f27 (f28 f29 ?v1) ?v_0) f1)))))))
(assert (forall ((?v0 S7)) (= (f27 (f28 f29 (f14 f30 (f45 f46 ?v0))) (f55 f56 ?v0)) f1)))
(assert (forall ((?v0 S5) (?v1 S22)) (let ((?v_0 (f28 f29 ?v0))) (=> (= (f27 ?v_0 ?v1) f1) (= (f27 ?v_0 (f31 f96 ?v1)) f1)))))
(assert (forall ((?v0 S5) (?v1 S5) (?v2 S22)) (let ((?v_0 (f31 f32 ?v2))) (=> (= (f27 (f28 f29 (f10 (f97 f98 ?v0) ?v1)) ?v_0) f1) (=> (=> (= (f27 (f28 f29 ?v0) ?v_0) f1) (=> (= (f27 (f28 f29 ?v1) ?v_0) f1) false)) false)))))
(assert (forall ((?v0 S5) (?v1 S5) (?v2 S22)) (let ((?v_0 (f31 f54 ?v2))) (=> (= (f27 (f28 f29 (f10 (f97 f98 ?v0) ?v1)) ?v_0) f1) (=> (=> (= (f27 (f28 f29 ?v0) ?v_0) f1) (=> (= (f27 (f28 f29 ?v1) ?v_0) f1) false)) false)))))
(assert (forall ((?v0 S5) (?v1 S22) (?v2 S5)) (let ((?v_0 (f31 f96 ?v1))) (=> (= (f27 (f28 f29 ?v0) ?v_0) f1) (=> (= (f27 (f28 f29 ?v2) ?v_0) f1) (= (f27 (f28 f29 (f10 (f97 f98 ?v0) ?v2)) ?v_0) f1))))))
(assert (forall ((?v0 S44) (?v1 S46)) (= (= (f65 (f66 f67 ?v0) ?v1) f1) (= (f104 ?v1 ?v0) f1))))
(assert (forall ((?v0 S36) (?v1 S39)) (= (= (f57 (f58 f59 ?v0) ?v1) f1) (= (f105 ?v1 ?v0) f1))))
(assert (forall ((?v0 S16) (?v1 S14)) (= (= (f18 (f19 f20 ?v0) ?v1) f1) (= (f106 ?v1 ?v0) f1))))
(assert (forall ((?v0 S5) (?v1 S22)) (= (= (f27 (f28 f29 ?v0) ?v1) f1) (= (f49 ?v1 ?v0) f1))))
(assert (forall ((?v0 S7) (?v1 S28)) (= (= (f37 (f38 f39 ?v0) ?v1) f1) (= (f107 ?v1 ?v0) f1))))
(assert (forall ((?v0 S3) (?v1 S2)) (= (= (f41 (f42 f43 ?v0) ?v1) f1) (= (f3 ?v1 ?v0) f1))))
(assert (forall ((?v0 S11) (?v1 S65)) (= (= (f88 (f89 f90 ?v0) ?v1) f1) (= (f108 ?v1 ?v0) f1))))
(assert (forall ((?v0 S7) (?v1 S22)) (= (f27 (f28 f29 (f101 f102 ?v0)) (f31 f96 ?v1)) f1)))
(assert (forall ((?v0 S22) (?v1 S5) (?v2 S5)) (let ((?v_0 (f31 f50 ?v0))) (=> (= (f49 ?v_0 ?v1) f1) (=> (= (f49 ?v_0 ?v2) f1) (= (f49 ?v_0 (f10 (f97 f98 ?v1) ?v2)) f1))))))
(assert (forall ((?v0 S7)) (= (f88 (f89 f90 (f45 f46 ?v0)) f103) f1)))
(assert (forall ((?v0 S22) (?v1 S7)) (= (f49 (f31 f50 ?v0) (f101 f102 ?v1)) f1)))
(assert (forall ((?v0 S5) (?v1 S22) (?v2 S11)) (let ((?v_0 (f31 f96 ?v1))) (=> (= (f27 (f28 f29 ?v0) ?v_0) f1) (=> (= (f27 (f28 f29 (f14 f30 ?v2)) ?v1) f1) (= (f27 (f28 f29 (f10 (f11 f12 ?v2) ?v0)) ?v_0) f1))))))
(assert (forall ((?v0 S7) (?v1 S22)) (let ((?v_0 (f99 f100 (f101 f102 ?v0)))) (= (f31 f54 (f31 ?v_0 ?v1)) (f31 ?v_0 (f31 f54 ?v1))))))
(assert (forall ((?v0 S5) (?v1 S5) (?v2 S22)) (let ((?v_0 (f99 f100 (f10 (f97 f98 ?v0) ?v1)))) (= (f31 f54 (f31 ?v_0 ?v2)) (f31 ?v_0 (f31 f54 (f31 (f99 f100 ?v0) (f31 (f99 f100 ?v1) ?v2))))))))
(assert (forall ((?v0 S11) (?v1 S11)) (=> (not (= (= (f88 (f89 f90 ?v0) f103) f1) (= (f88 (f89 f90 ?v1) f103) f1))) (not (= ?v0 ?v1)))))
(assert (forall ((?v0 S5) (?v1 S5) (?v2 S22)) (let ((?v_0 (f31 f96 (f31 f32 ?v2)))) (= (= (f27 (f28 f29 (f10 (f97 f98 ?v0) ?v1)) ?v_0) f1) (and (= (f27 (f28 f29 ?v0) ?v_0) f1) (= (f27 (f28 f29 ?v1) ?v_0) f1))))))
(assert (forall ((?v0 S5) (?v1 S22)) (let ((?v_0 (f31 f96 (f31 f32 ?v1)))) (=> (= (f27 (f28 f29 ?v0) ?v_0) f1) (= (f31 f96 (f31 f32 (f31 (f99 f100 ?v0) ?v1))) ?v_0)))))
(assert (forall ((?v0 S7) (?v1 S22)) (let ((?v_0 (f99 f100 (f101 f102 ?v0)))) (= (f31 f32 (f31 ?v_0 ?v1)) (f31 ?v_0 (f31 f32 ?v1))))))
(assert (forall ((?v0 S5) (?v1 S5) (?v2 S22)) (let ((?v_0 (f99 f100 (f10 (f97 f98 ?v0) ?v1)))) (= (f31 f32 (f31 ?v_0 ?v2)) (f31 ?v_0 (f31 f32 (f31 (f99 f100 ?v0) (f31 (f99 f100 ?v1) ?v2))))))))
(assert (forall ((?v0 S11) (?v1 S7) (?v2 S22)) (let ((?v_1 (f99 f100 (f14 f30 ?v0))) (?v_0 (f99 f100 (f101 f102 ?v1)))) (= (f31 ?v_1 (f31 ?v_0 ?v2)) (f31 ?v_0 (f31 ?v_1 ?v2))))))
(assert (forall ((?v0 S11) (?v1 S5) (?v2 S5) (?v3 S22)) (let ((?v_1 (f99 f100 (f14 f30 ?v0))) (?v_0 (f99 f100 (f10 (f97 f98 ?v1) ?v2)))) (= (f31 ?v_1 (f31 ?v_0 ?v3)) (f31 ?v_0 (f31 ?v_1 ?v3))))))
(assert (forall ((?v0 S11) (?v1 S5) (?v2 S7) (?v3 S22)) (let ((?v_1 (f99 f100 (f10 (f11 f12 ?v0) ?v1))) (?v_0 (f99 f100 (f101 f102 ?v2)))) (= (f31 ?v_1 (f31 ?v_0 ?v3)) (f31 ?v_0 (f31 ?v_1 ?v3))))))
(assert (forall ((?v0 S11) (?v1 S5) (?v2 S5) (?v3 S5) (?v4 S22)) (let ((?v_1 (f99 f100 (f10 (f11 f12 ?v0) ?v1))) (?v_0 (f99 f100 (f10 (f97 f98 ?v2) ?v3)))) (= (f31 ?v_1 (f31 ?v_0 ?v4)) (f31 ?v_0 (f31 ?v_1 ?v4))))))
(assert (forall ((?v0 S5) (?v1 S5) (?v2 S22)) (let ((?v_0 (f28 f29 ?v0)) (?v_1 (f31 f96 ?v2))) (=> (= (f27 ?v_0 (f31 f96 (f31 (f99 f100 ?v1) ?v2))) f1) (=> (= (f27 (f28 f29 ?v1) ?v_1) f1) (= (f27 ?v_0 ?v_1) f1))))))
(assert (forall ((?v0 S5) (?v1 S22)) (let ((?v_0 (f28 f29 ?v0)) (?v_1 (f31 f96 ?v1))) (=> (= (f27 ?v_0 (f31 f96 ?v_1)) f1) (= (f27 ?v_0 ?v_1) f1)))))
(assert (forall ((?v0 S5) (?v1 S5) (?v2 S5) (?v3 S5)) (= (= (f10 (f97 f98 ?v0) ?v1) (f10 (f97 f98 ?v2) ?v3)) (and (= ?v0 ?v2) (= ?v1 ?v3)))))
(assert (forall ((?v0 S5) (?v1 S5) (?v2 S22)) (let ((?v_0 (f28 f29 (f10 (f97 f98 ?v0) ?v1))) (?v_1 (f31 f96 ?v2))) (= (= (f27 ?v_0 ?v_1) f1) (or (= (f27 ?v_0 ?v2) f1) (and (= (f27 (f28 f29 ?v0) ?v_1) f1) (= (f27 (f28 f29 ?v1) ?v_1) f1)))))))
(assert (forall ((?v0 S7) (?v1 S7)) (= (= (f101 f102 ?v0) (f101 f102 ?v1)) (= ?v0 ?v1))))
(assert (forall ((?v0 S22)) (let ((?v_0 (f31 f96 ?v0))) (= (f31 f96 ?v_0) ?v_0))))
(assert (forall ((?v0 S7) (?v1 S22)) (= (f27 (f28 f29 (f101 f102 ?v0)) (f31 f96 ?v1)) f1)))
(assert (forall ((?v0 S5) (?v1 S5) (?v2 S7)) (not (= (f10 (f97 f98 ?v0) ?v1) (f101 f102 ?v2)))))
(assert (forall ((?v0 S7) (?v1 S5) (?v2 S5)) (not (= (f101 f102 ?v0) (f10 (f97 f98 ?v1) ?v2)))))
(assert (forall ((?v0 S11) (?v1 S22)) (let ((?v_0 (f28 f29 (f14 f30 ?v0)))) (= (= (f27 ?v_0 (f31 f96 ?v1)) f1) (= (f27 ?v_0 ?v1) f1)))))
(assert (forall ((?v0 S5) (?v1 S5) (?v2 S22)) (let ((?v_0 (f31 f32 ?v2))) (=> (= (f27 (f28 f29 (f10 (f97 f98 ?v0) ?v1)) ?v_0) f1) (= (f27 (f28 f29 ?v1) ?v_0) f1)))))
(assert (forall ((?v0 S5) (?v1 S5) (?v2 S22)) (let ((?v_0 (f31 f32 ?v2))) (=> (= (f27 (f28 f29 (f10 (f97 f98 ?v0) ?v1)) ?v_0) f1) (= (f27 (f28 f29 ?v0) ?v_0) f1)))))
(assert (forall ((?v0 S7) (?v1 S11)) (not (= (f101 f102 ?v0) (f14 f30 ?v1)))))
(assert (forall ((?v0 S11) (?v1 S7)) (not (= (f14 f30 ?v0) (f101 f102 ?v1)))))
(assert (forall ((?v0 S5) (?v1 S5) (?v2 S11)) (not (= (f10 (f97 f98 ?v0) ?v1) (f14 f30 ?v2)))))
(assert (forall ((?v0 S11) (?v1 S5) (?v2 S5)) (not (= (f14 f30 ?v0) (f10 (f97 f98 ?v1) ?v2)))))
(assert (forall ((?v0 S5) (?v1 S5) (?v2 S22)) (let ((?v_0 (f31 f54 ?v2))) (=> (= (f27 (f28 f29 (f10 (f97 f98 ?v0) ?v1)) ?v_0) f1) (= (f27 (f28 f29 ?v1) ?v_0) f1)))))
(assert (forall ((?v0 S5) (?v1 S5) (?v2 S22)) (let ((?v_0 (f31 f54 ?v2))) (=> (= (f27 (f28 f29 (f10 (f97 f98 ?v0) ?v1)) ?v_0) f1) (= (f27 (f28 f29 ?v0) ?v_0) f1)))))
(assert (forall ((?v0 S11) (?v1 S5) (?v2 S7)) (not (= (f10 (f11 f12 ?v0) ?v1) (f101 f102 ?v2)))))
(assert (forall ((?v0 S7) (?v1 S11) (?v2 S5)) (not (= (f101 f102 ?v0) (f10 (f11 f12 ?v1) ?v2)))))
(assert (forall ((?v0 S5) (?v1 S5) (?v2 S11) (?v3 S5)) (not (= (f10 (f97 f98 ?v0) ?v1) (f10 (f11 f12 ?v2) ?v3)))))
(assert (forall ((?v0 S11) (?v1 S5) (?v2 S5) (?v3 S5)) (not (= (f10 (f11 f12 ?v0) ?v1) (f10 (f97 f98 ?v2) ?v3)))))
(assert (forall ((?v0 S11) (?v1 S22)) (let ((?v_0 (f28 f29 (f14 f15 ?v0)))) (= (= (f27 ?v_0 (f31 f96 ?v1)) f1) (= (f27 ?v_0 ?v1) f1)))))
(assert (forall ((?v0 S11) (?v1 S22)) (let ((?v_0 (f28 f29 (f14 f15 ?v0)))) (= (= (f27 ?v_0 (f31 f96 ?v1)) f1) (= (f27 ?v_0 ?v1) f1)))))
(assert (forall ((?v0 S11) (?v1 S7)) (not (= (f14 f15 ?v0) (f101 f102 ?v1)))))
(assert (forall ((?v0 S7) (?v1 S11)) (not (= (f101 f102 ?v0) (f14 f15 ?v1)))))
(assert (forall ((?v0 S5) (?v1 S5) (?v2 S11)) (not (= (f10 (f97 f98 ?v0) ?v1) (f14 f15 ?v2)))))
(assert (forall ((?v0 S11) (?v1 S5) (?v2 S5)) (not (= (f14 f15 ?v0) (f10 (f97 f98 ?v1) ?v2)))))
(assert (forall ((?v0 S22) (?v1 S22) (?v2 S5)) (let ((?v_0 (f99 f100 ?v2))) (=> (= (f31 f32 ?v0) (f31 f32 ?v1)) (= (f31 f32 (f31 ?v_0 ?v0)) (f31 f32 (f31 ?v_0 ?v1)))))))
(assert (forall ((?v0 S5) (?v1 S5) (?v2 S22)) (let ((?v_0 (f28 f29 ?v0)) (?v_1 (f31 f32 ?v2))) (=> (= (f27 ?v_0 (f31 f32 (f31 (f99 f100 ?v1) ?v2))) f1) (=> (= (f27 (f28 f29 ?v1) ?v_1) f1) (= (f27 ?v_0 ?v_1) f1))))))
(assert (forall ((?v0 S5) (?v1 S22)) (let ((?v_0 (f31 f32 ?v1))) (=> (= (f27 (f28 f29 ?v0) ?v_0) f1) (= (f31 f32 (f31 (f99 f100 ?v0) ?v1)) ?v_0)))))
(check-sat)
(exit)
